solution status: optimal solution found
objective value:                                93136
x#36#0#36#254                       0.999999999999999 	(obj:9144)
x#80#0#104#55                                       1 	(obj:5720)
x#0#385#55#104                                      1 	(obj:5720)
x#0#0#36#254                                        1 	(obj:9144)
x#0#275#55#104                                      1 	(obj:5720)
x#200#30#40#30                      0.999999999999997 	(obj:1200)
x#200#0#40#30                                       1 	(obj:1200)
x#200#480#40#30                                     1 	(obj:1200)
x#200#440#40#30                                     1 	(obj:1200)
x#180#210#55#104                                    1 	(obj:5720)
x#180#90#55#104                                     1 	(obj:5720)
x#180#60#40#30                      0.999999999999997 	(obj:1200)
x#55#450#40#30                                      1 	(obj:1200)
x#55#480#40#30                                      1 	(obj:1200)
x#110#120#55#104                                    1 	(obj:5720)
x#110#254#36#254                                    1 	(obj:9144)
x#160#330#55#104                                    1 	(obj:5720)
x#160#450#40#30                                     1 	(obj:1200)
x#160#480#40#30                                     1 	(obj:1200)
x#72#180#36#254                                     1 	(obj:9144)
x#72#60#104#55                                      1 	(obj:5720)
